20
0 72 89 77 2 58 13 69 32 45 21 12 12 42 52 32 53 42 66 91
77 0 69 31 57 93 83 48 32 45 21 12 12 42 52 32 53 42 66 91
52 21 0 62 8 77 32 14 32 45 21 12 12 42 52 32 53 42 66 91
33 1 40 0 72 99 72 59 32 45 21 12 12 42 52 32 53 42 66 91
89 24 1 61 0 12 78 63 32 45 21 12 12 42 52 32 53 42 66 91
36 91 98 79 26 0 28 1 32 45 21 12 12 42 52 32 53 42 66 91
18 77 49 36 98 77 0 45 32 45 21 12 12 42 52 32 53 42 66 91
75 9 59 7 77 65 45 0 32 45 21 12 12 42 52 32 53 42 66 91
75 9 59 7 77 65 45 77 0 45 21 12 12 42 52 32 53 42 66 91
75 9 59 7 77 65 45 77 32 0 21 12 12 42 52 32 53 42 66 91
75 9 59 7 77 65 45 77 32 45 0 12 12 42 52 32 53 42 66 91
75 9 59 7 77 65 45 77 32 45 21 0 12 42 52 32 53 42 66 91
75 9 59 7 77 65 45 77 32 45 21 12 0 42 52 32 53 42 66 91
75 9 59 7 77 65 45 77 32 45 21 12 12 0 52 32 53 42 66 91
75 9 59 7 77 65 45 77 32 45 21 12 12 42 0 32 53 42 66 91
75 9 59 7 77 65 45 77 32 45 21 12 12 42 52 0 53 42 66 91
75 9 59 7 77 65 45 77 32 45 21 12 12 42 52 32 0 42 66 91
75 9 59 7 77 65 45 77 32 45 21 12 12 42 52 32 53 0 66 91
75 9 59 7 77 65 45 77 32 45 21 12 12 42 52 32 53 42 0 91
75 9 59 7 77 65 45 77 32 45 21 12 12 42 52 32 53 42 66 0